p cnf 14 37
14 13 4 0
14 13 2 0
14 -13 -1 0
-14 12 3 0
14 -10 -6 0
-14 -10 5 0
-14 8 4 0
-13 -11 -10 0
-13 11 7 0
-13 -10 9 0
13 6 5 0
12 -11 9 0
12 11 -7 0
-12 -8 7 0
12 -8 6 0
-12 6 5 0
12 -5 -2 0
11 -10 9 0
11 -10 -8 0
11 9 1 0
11 -9 1 0
11 -4 -1 0
-9 6 5 0
9 5 3 0
9 -5 2 0
-9 -3 2 0
-8 -6 -3 0
8 -5 -2 0
7 -5 -1 0
7 3 2 0
7 3 1 0
7 3 -1 0
6 -4 1 0
-5 -4 2 0
-5 3 -1 0
-4 -3 -1 0
4 2 -1 0
